% seed = 2654433

mint = 56;
% maxt = 238;

nActs = 42;
dur = [0,8,5,9,2,4,8,2,1,10,7,3,6,9,3,4,4,2,9,4,9,6,8,10,3,5,4,5,5,3,2,8,7,10,9,10,7,3,7,8,9,0];

nSkills = 4;
sreq = [| 0,0,0,0,
	| 3,0,4,5,
	| 5,0,3,0,
	| 0,4,3,2,
	| 3,4,7,4,
	| 7,0,0,6,
	| 5,0,6,0,
	| 3,2,7,2,
	| 7,0,4,0,
	| 0,0,6,6,
	| 6,4,4,0,
	| 4,3,4,4,
	| 0,5,0,5,
	| 2,4,4,3,
	| 7,0,0,5,
	| 6,3,3,6,
	| 0,6,5,0,
	| 4,0,7,6,
	| 4,3,3,3,
	| 7,0,5,0,
	| 0,3,0,2,
	| 4,5,5,0,
	| 5,3,4,2,
	| 1,3,0,4,
	| 2,5,0,6,
	| 7,1,0,4,
	| 4,5,6,6,
	| 5,6,0,0,
	| 0,0,6,4,
	| 6,3,3,3,
	| 2,1,1,1,
	| 0,0,3,7,
	| 3,2,1,1,
	| 4,3,1,1,
	| 5,4,4,1,
	| 0,5,1,5,
	| 7,0,0,3,
	| 5,0,0,7,
	| 0,4,1,6,
	| 4,0,3,6,
	| 0,5,4,3,
	| 0,0,0,0, |];

nResources = 30;
mastery = [| true,false,false,true,
	| false,false,true,false,
	| true,false,false,false,
	| true,false,true,true,
	| true,true,false,false,
	| false,true,true,false,
	| false,true,true,false,
	| false,false,true,true,
	| false,false,true,false,
	| false,false,false,true,
	| false,false,true,false,
	| true,false,false,false,
	| false,false,true,false,
	| false,true,false,true,
	| false,true,true,false,
	| true,true,false,false,
	| false,false,true,true,
	| true,false,false,false,
	| false,true,false,false,
	| true,false,false,false,
	| true,false,true,true,
	| true,false,true,true,
	| true,true,false,true,
	| false,true,false,false,
	| false,true,false,false,
	| true,false,false,false,
	| true,true,true,false,
	| false,false,true,false,
	| false,true,false,false,
	| true,false,true,true, |];

nPrecs = 73;
pred = [1,1,1,2,2,2,3,3,4,4,4,5,5,5,6,6,6,7,7,7,8,8,9,9,10,10,11,11,12,12,13,13,13,14,14,15,15,16,16,17,18,18,18,19,20,20,21,22,22,23,23,24,24,24,25,26,27,28,29,29,29,30,31,32,33,34,35,36,37,38,39,40,41];
succ = [2,3,4,10,5,23,33,14,34,11,28,27,12,6,35,7,8,9,18,13,20,21,25,22,15,32,17,16,35,24,25,20,30,26,15,17,22,19,30,38,28,22,24,29,34,26,41,36,37,39,24,34,36,37,36,32,39,30,41,37,31,32,35,39,40,38,38,41,40,40,42,42,42];

nUnrels = 496;
unpred = [2,2,2,2,2,2,2,2,2,3,3,3,3,3,3,3,3,3,3,3,3,3,3,3,3,3,3,3,3,3,3,3,3,3,4,4,4,4,4,4,4,4,4,4,4,4,4,4,4,4,4,4,4,4,4,5,5,5,5,5,5,5,5,5,5,5,6,6,6,6,6,6,6,6,6,6,6,6,6,7,7,7,7,7,7,7,7,7,7,7,7,7,7,7,7,8,8,8,8,8,8,8,8,8,8,8,8,8,8,8,8,8,8,8,8,8,8,8,8,9,9,9,9,9,9,9,9,9,9,9,9,9,9,9,9,9,9,9,9,9,9,9,9,9,9,10,10,10,10,10,10,10,10,10,10,10,10,10,10,10,10,10,10,10,10,10,11,11,11,11,11,11,11,11,11,11,11,11,11,11,11,11,11,12,12,12,12,12,12,12,12,12,12,12,12,12,12,12,12,12,12,12,12,12,13,13,13,13,13,13,13,13,13,13,13,13,13,13,13,13,13,14,14,14,14,14,14,14,14,14,14,14,14,14,14,14,14,15,15,15,15,15,15,15,15,15,15,15,15,15,15,15,15,15,15,15,16,16,16,16,16,16,16,16,16,16,16,16,16,16,17,17,17,17,17,17,17,17,17,17,17,17,17,17,17,17,17,17,17,17,17,17,18,18,18,18,18,18,18,18,18,18,18,19,19,19,19,19,19,19,19,19,19,19,19,19,19,19,20,20,20,20,20,20,20,20,20,20,20,20,20,20,20,21,21,21,21,21,21,21,21,21,21,21,21,21,21,21,21,21,21,21,22,22,22,22,22,22,22,22,22,22,22,22,22,22,22,23,23,23,23,23,23,23,23,23,23,24,24,24,24,24,24,24,24,24,24,24,25,25,25,25,25,25,25,25,25,25,25,25,25,25,26,26,26,26,26,26,26,26,26,26,26,26,26,27,27,27,27,27,27,27,27,27,27,27,27,27,28,28,28,28,28,28,28,28,28,28,29,29,29,29,29,29,30,30,30,30,30,30,30,30,30,31,31,31,31,31,31,31,32,32,32,32,32,32,32,32,33,33,33,33,33,33,33,34,34,34,34,34,35,35,35,35,36,36,36,36,37,37,37,38,38,39,39,40];
unsucc = [3,4,11,14,16,19,29,31,33,4,5,6,7,8,9,10,11,12,13,16,18,19,20,21,23,24,25,27,28,29,30,31,34,35,5,6,7,8,9,10,12,13,14,15,18,20,21,22,23,24,25,26,27,33,36,10,11,14,15,16,17,19,23,29,31,33,10,11,12,14,15,16,17,19,23,27,29,31,33,8,10,11,12,14,15,16,17,19,21,23,27,29,31,33,35,9,10,11,12,13,14,15,16,17,18,19,22,23,24,25,27,28,29,30,31,33,35,36,37,10,11,12,13,14,15,16,17,18,19,20,21,23,24,26,27,28,29,30,31,32,33,34,35,38,39,11,12,13,14,16,18,19,20,21,23,24,25,26,27,28,29,30,31,33,34,35,12,13,14,15,18,20,21,22,23,24,25,26,27,28,33,34,36,13,14,15,16,17,18,19,20,21,22,23,25,26,27,28,29,30,31,32,33,39,14,15,16,17,18,19,21,22,23,24,27,28,29,31,33,35,37,16,18,19,20,21,23,24,25,27,28,29,30,31,33,34,35,16,18,19,20,21,23,24,25,26,27,28,29,30,31,32,33,34,35,39,17,18,20,21,22,23,24,25,26,27,28,33,34,36,18,19,20,21,22,23,24,25,26,27,28,29,30,31,32,33,34,35,36,37,39,41,19,20,21,23,25,26,27,29,31,33,35,20,21,22,23,24,25,26,27,28,30,32,33,34,36,39,21,22,23,24,25,27,28,29,30,31,33,35,36,37,41,22,23,24,25,26,27,28,29,30,31,32,33,34,35,36,37,38,39,40,23,24,25,26,27,28,29,30,31,32,33,34,35,38,39,25,26,27,28,29,30,31,32,33,35,25,26,27,28,29,30,31,32,33,35,39,26,27,28,29,30,31,32,33,34,35,37,38,39,40,27,28,29,30,31,33,34,35,36,37,38,40,41,28,29,30,31,32,33,34,35,36,37,38,40,41,29,31,33,34,35,36,37,38,40,41,30,32,33,34,36,39,31,33,34,35,36,37,38,40,41,32,33,34,36,37,39,41,33,34,35,36,37,38,40,41,34,35,36,37,38,39,41,35,36,37,39,41,36,37,39,41,37,38,39,40,38,39,41,39,41,40,41,41];

USEFUL_RES = [{},
	{1,2,3,4,5,6,7,8,9,10,11,12,13,14,15,16,17,18,20,21,22,23,26,27,28,30},
	{1,2,3,4,5,6,7,8,9,11,12,13,15,16,17,18,20,21,22,23,26,27,28,30},
	{1,2,4,5,6,7,8,9,10,11,13,14,15,16,17,19,21,22,23,24,25,27,28,29,30},
	{1,2,3,4,5,6,7,8,9,10,11,12,13,14,15,16,17,18,19,20,21,22,23,24,25,26,27,28,29,30},
	{1,3,4,5,8,10,12,14,16,17,18,20,21,22,23,26,27,30},
	{1,2,3,4,5,6,7,8,9,11,12,13,15,16,17,18,20,21,22,23,26,27,28,30},
	{1,2,3,4,5,6,7,8,9,10,11,12,13,14,15,16,17,18,19,20,21,22,23,24,25,26,27,28,29,30},
	{1,2,3,4,5,6,7,8,9,11,12,13,15,16,17,18,20,21,22,23,26,27,28,30},
	{1,2,4,6,7,8,9,10,11,13,14,15,17,21,22,23,27,28,30},
	{1,2,3,4,5,6,7,8,9,11,12,13,14,15,16,17,18,19,20,21,22,23,24,25,26,27,28,29,30},
	{1,2,3,4,5,6,7,8,9,10,11,12,13,14,15,16,17,18,19,20,21,22,23,24,25,26,27,28,29,30},
	{1,4,5,6,7,8,10,14,15,16,17,19,21,22,23,24,25,27,29,30},
	{1,2,3,4,5,6,7,8,9,10,11,12,13,14,15,16,17,18,19,20,21,22,23,24,25,26,27,28,29,30},
	{1,3,4,5,8,10,12,14,16,17,18,20,21,22,23,26,27,30},
	{1,2,3,4,5,6,7,8,9,10,11,12,13,14,15,16,17,18,19,20,21,22,23,24,25,26,27,28,29,30},
	{2,4,5,6,7,8,9,11,13,14,15,16,17,19,21,22,23,24,25,27,28,29,30},
	{1,2,3,4,5,6,7,8,9,10,11,12,13,14,15,16,17,18,20,21,22,23,26,27,28,30},
	{1,2,3,4,5,6,7,8,9,10,11,12,13,14,15,16,17,18,19,20,21,22,23,24,25,26,27,28,29,30},
	{1,2,3,4,5,6,7,8,9,11,12,13,15,16,17,18,20,21,22,23,26,27,28,30},
	{1,4,5,6,7,8,10,14,15,16,17,19,21,22,23,24,25,27,29,30},
	{1,2,3,4,5,6,7,8,9,11,12,13,14,15,16,17,18,19,20,21,22,23,24,25,26,27,28,29,30},
	{1,2,3,4,5,6,7,8,9,10,11,12,13,14,15,16,17,18,19,20,21,22,23,24,25,26,27,28,29,30},
	{1,3,4,5,6,7,8,10,12,14,15,16,17,18,19,20,21,22,23,24,25,26,27,29,30},
	{1,3,4,5,6,7,8,10,12,14,15,16,17,18,19,20,21,22,23,24,25,26,27,29,30},
	{1,3,4,5,6,7,8,10,12,14,15,16,17,18,19,20,21,22,23,24,25,26,27,29,30},
	{1,2,3,4,5,6,7,8,9,10,11,12,13,14,15,16,17,18,19,20,21,22,23,24,25,26,27,28,29,30},
	{1,3,4,5,6,7,12,14,15,16,18,19,20,21,22,23,24,25,26,27,29,30},
	{1,2,4,6,7,8,9,10,11,13,14,15,17,21,22,23,27,28,30},
	{1,2,3,4,5,6,7,8,9,10,11,12,13,14,15,16,17,18,19,20,21,22,23,24,25,26,27,28,29,30},
	{1,2,3,4,5,6,7,8,9,10,11,12,13,14,15,16,17,18,19,20,21,22,23,24,25,26,27,28,29,30},
	{1,2,4,6,7,8,9,10,11,13,14,15,17,21,22,23,27,28,30},
	{1,2,3,4,5,6,7,8,9,10,11,12,13,14,15,16,17,18,19,20,21,22,23,24,25,26,27,28,29,30},
	{1,2,3,4,5,6,7,8,9,10,11,12,13,14,15,16,17,18,19,20,21,22,23,24,25,26,27,28,29,30},
	{1,2,3,4,5,6,7,8,9,10,11,12,13,14,15,16,17,18,19,20,21,22,23,24,25,26,27,28,29,30},
	{1,2,4,5,6,7,8,9,10,11,13,14,15,16,17,19,21,22,23,24,25,27,28,29,30},
	{1,3,4,5,8,10,12,14,16,17,18,20,21,22,23,26,27,30},
	{1,3,4,5,8,10,12,14,16,17,18,20,21,22,23,26,27,30},
	{1,2,4,5,6,7,8,9,10,11,13,14,15,16,17,19,21,22,23,24,25,27,28,29,30},
	{1,2,3,4,5,6,7,8,9,10,11,12,13,14,15,16,17,18,20,21,22,23,26,27,28,30},
	{1,2,4,5,6,7,8,9,10,11,13,14,15,16,17,19,21,22,23,24,25,27,28,29,30},
	{}];

POTENTIAL_ACT = [{2,3,4,5,6,7,8,9,10,11,12,13,14,15,16,18,19,20,21,22,23,24,25,26,27,28,29,30,31,32,33,34,35,36,37,38,39,40,41},
	{2,3,4,5,7,8,9,10,11,12,14,16,17,18,19,20,22,23,27,29,30,31,32,33,34,35,36,39,40,41},
	{2,3,5,6,7,8,9,11,12,14,15,16,18,19,20,22,23,24,25,26,27,28,30,31,33,34,35,37,38,40},
	{2,3,4,5,6,7,8,9,10,11,12,13,14,15,16,17,18,19,20,21,22,23,24,25,26,27,28,29,30,31,32,33,34,35,36,37,38,39,40,41},
	{2,3,4,5,6,7,8,9,11,12,13,14,15,16,17,18,19,20,21,22,23,24,25,26,27,28,30,31,33,34,35,36,37,38,39,40,41},
	{2,3,4,5,7,8,9,10,11,12,13,14,16,17,18,19,20,21,22,23,24,25,26,27,28,29,30,31,32,33,34,35,36,39,40,41},
	{2,3,4,5,7,8,9,10,11,12,13,14,16,17,18,19,20,21,22,23,24,25,26,27,28,29,30,31,32,33,34,35,36,39,40,41},
	{2,3,4,5,6,7,8,9,10,11,12,13,14,15,16,17,18,19,20,21,22,23,24,25,26,27,29,30,31,32,33,34,35,36,37,38,39,40,41},
	{2,3,4,5,7,8,9,10,11,12,14,16,17,18,19,20,22,23,27,29,30,31,32,33,34,35,36,39,40,41},
	{2,4,5,6,8,10,12,13,14,15,16,18,19,21,23,24,25,26,27,29,30,31,32,33,34,35,36,37,38,39,40,41},
	{2,3,4,5,7,8,9,10,11,12,14,16,17,18,19,20,22,23,27,29,30,31,32,33,34,35,36,39,40,41},
	{2,3,5,6,7,8,9,11,12,14,15,16,18,19,20,22,23,24,25,26,27,28,30,31,33,34,35,37,38,40},
	{2,3,4,5,7,8,9,10,11,12,14,16,17,18,19,20,22,23,27,29,30,31,32,33,34,35,36,39,40,41},
	{2,4,5,6,8,10,11,12,13,14,15,16,17,18,19,21,22,23,24,25,26,27,28,29,30,31,32,33,34,35,36,37,38,39,40,41},
	{2,3,4,5,7,8,9,10,11,12,13,14,16,17,18,19,20,21,22,23,24,25,26,27,28,29,30,31,32,33,34,35,36,39,40,41},
	{2,3,4,5,6,7,8,9,11,12,13,14,15,16,17,18,19,20,21,22,23,24,25,26,27,28,30,31,33,34,35,36,37,38,39,40,41},
	{2,3,4,5,6,7,8,9,10,11,12,13,14,15,16,17,18,19,20,21,22,23,24,25,26,27,29,30,31,32,33,34,35,36,37,38,39,40,41},
	{2,3,5,6,7,8,9,11,12,14,15,16,18,19,20,22,23,24,25,26,27,28,30,31,33,34,35,37,38,40},
	{4,5,8,11,12,13,14,16,17,19,21,22,23,24,25,26,27,28,30,31,33,34,35,36,39,41},
	{2,3,5,6,7,8,9,11,12,14,15,16,18,19,20,22,23,24,25,26,27,28,30,31,33,34,35,37,38,40},
	{2,3,4,5,6,7,8,9,10,11,12,13,14,15,16,17,18,19,20,21,22,23,24,25,26,27,28,29,30,31,32,33,34,35,36,37,38,39,40,41},
	{2,3,4,5,6,7,8,9,10,11,12,13,14,15,16,17,18,19,20,21,22,23,24,25,26,27,28,29,30,31,32,33,34,35,36,37,38,39,40,41},
	{2,3,4,5,6,7,8,9,10,11,12,13,14,15,16,17,18,19,20,21,22,23,24,25,26,27,28,29,30,31,32,33,34,35,36,37,38,39,40,41},
	{4,5,8,11,12,13,14,16,17,19,21,22,23,24,25,26,27,28,30,31,33,34,35,36,39,41},
	{4,5,8,11,12,13,14,16,17,19,21,22,23,24,25,26,27,28,30,31,33,34,35,36,39,41},
	{2,3,5,6,7,8,9,11,12,14,15,16,18,19,20,22,23,24,25,26,27,28,30,31,33,34,35,37,38,40},
	{2,3,4,5,6,7,8,9,10,11,12,13,14,15,16,17,18,19,20,21,22,23,24,25,26,27,28,29,30,31,32,33,34,35,36,37,38,39,40,41},
	{2,3,4,5,7,8,9,10,11,12,14,16,17,18,19,20,22,23,27,29,30,31,32,33,34,35,36,39,40,41},
	{4,5,8,11,12,13,14,16,17,19,21,22,23,24,25,26,27,28,30,31,33,34,35,36,39,41},
	{2,3,4,5,6,7,8,9,10,11,12,13,14,15,16,17,18,19,20,21,22,23,24,25,26,27,28,29,30,31,32,33,34,35,36,37,38,39,40,41}];
